%nprocshared=48
%mem=40GB 
%chk=cetane.chk
#p opt b3lyp/6-31g(d) scrf=(solvent=water,pcm) empiricaldispersion=gd3

Title Card Required

0 1
 C                 -2.11022270    2.71844660    0.00000000
 H                 -1.75356827    1.70963660    0.00000000
 H                 -1.75354986    3.22284479   -0.87365150
 H                 -3.18022270    2.71845978    0.00000000
 C                 -1.59688048    3.44440287    1.25740497
 H                 -0.52688050    3.44422030    1.25750243
 H                 -1.95371274    2.94011707    2.13105625
 C                 -2.10996682    4.89641609    1.25726452
 H                 -1.75212587    5.40100204    0.38419930
 H                 -3.17996609    4.89695682    1.25613883
 C                 -1.59759046    5.62159593    2.51551118
 H                 -0.52759121    5.62103432    2.51664858
 H                 -1.95545023    5.11702356    3.38857653
 C                 -2.11016275    7.07379070    2.51555901
 H                 -3.18016202    7.07435141    2.51444136
 H                 -1.75231952    7.57835748    1.64248365
 C                 -1.59776255    7.79897895    3.77379112
 H                 -0.52776327    7.79842572    3.77490342
 H                 -1.95559790    7.29440683    4.64686663
 C                 -2.11034621    9.25116971    3.77384589
 H                 -3.18034549    9.25172204    3.77273865
 H                 -1.75251542    9.75574047    2.90076773
 C                 -1.59793945    9.97636028    5.03207399
 H                 -0.52794016    9.97580984    5.03317910
 H                 -1.95576761    9.47178791    5.90515229
 C                 -2.11052689   11.42854970    5.03213107
 H                 -3.18052618   11.42909925    5.03102789
 H                 -1.75270072   11.93312161    4.15905168
 C                 -1.59811724   12.15374129    6.29035741
 H                 -0.52811795   12.15319178    6.29145953
 H                 -1.95594253   11.64916901    7.16343694
 C                 -2.11070594   13.60593027    6.29041526
 H                 -3.18070524   13.60647888    6.28931401
 H                 -1.75288180   14.11050239    5.41733516
 C                 -1.59829465   14.33112244    7.54864059
 H                 -0.52829536   14.33057323    7.54974113
 H                 -1.95611850   13.82655035    8.42172082
 C                 -2.11088377   15.78331127    7.54869870
 H                 -3.18088307   15.78385957    7.54759927
 H                 -1.75306126   16.28788313    6.67561778
 C                 -1.59847055   16.50850412    8.80692285
 H                 -0.52847127   16.50793824    8.80803137
 H                 -1.95630877   16.00394363    9.68000389
 C                 -2.11103703   17.96070094    8.80696713
 H                 -3.18103630   17.96126592    8.80585394
 H                 -1.75319542   18.46526287    7.93388830
 C                 -1.59862868   18.68589207   10.06519426
 H                 -0.52862941   18.68532826   10.06630574
 H                 -1.95476449   19.69488527   10.06522622
 H                 -1.95646834   18.18132900   10.93827323

 1 2 1.0 3 1.0 4 1.0 5 1.0
 2
 3
 4
 5 6 1.0 7 1.0 8 1.0
 6
 7
 8 9 1.0 10 1.0 11 1.0
 9
 10
 11 12 1.0 13 1.0 14 1.0
 12
 13
 14 15 1.0 16 1.0 17 1.0
 15
 16
 17 18 1.0 19 1.0 20 1.0
 18
 19
 20 21 1.0 22 1.0 23 1.0
 21
 22
 23 24 1.0 25 1.0 26 1.0
 24
 25
 26 27 1.0 28 1.0 29 1.0
 27
 28
 29 30 1.0 31 1.0 32 1.0
 30
 31
 32 33 1.0 34 1.0 35 1.0
 33
 34
 35 36 1.0 37 1.0 38 1.0
 36
 37
 38 39 1.0 40 1.0 41 1.0
 39
 40
 41 42 1.0 43 1.0 44 1.0
 42
 43
 44 45 1.0 46 1.0 47 1.0
 45
 46
 47 48 1.0 49 1.0 50 1.0
 48
 49
 50

