%nprocshared=48
%mem=40GB 
%chk=dodecane.chk
#p opt b3lyp/6-31g(d) scrf=(solvent=water,pcm) empiricaldispersion=gd3

Title Card Required

0 1
 C                 -2.12735576    3.22101656    0.00000000
 H                 -1.77068292    3.72541475    0.87365150
 H                 -1.77068292    3.72541475   -0.87365150
 H                 -3.19735576    3.22102974    0.00000000
 C                 -1.61404005    1.76908441    0.00000000
 H                 -1.97071086    1.26468693    0.87365275
 H                 -1.97071492    1.26468550   -0.87365026
 C                 -0.07404005    1.76906543   -0.00000358
 H                  0.28263048    2.27346269   -0.87365656
 H                  0.28263505    2.27346519    0.87364610
 C                  0.43927493    0.31713302   -0.00000235
 H                  0.08260674   -0.18726242    0.87365264
 H                  0.08259772   -0.18726811   -0.87365036
 C                  1.97927493    0.31711446   -0.00001030
 H                  2.33594282    0.81981176   -0.87464362
 H                  2.33595240    0.82321245    0.87265573
 C                  2.49259032   -1.13481507    0.00281321
 H                  2.13548932   -1.64106200   -0.86959318
 H                  2.13634548   -1.63736194    0.87770535
 C                  4.03259014   -1.13483515    0.00205917
 H                  4.38969029   -0.62857806    0.87446003
 H                  4.38883521   -0.63229801   -0.87283846
 C                  4.54590553   -2.58676463    0.00489858
 H                  4.18879431   -3.09302472   -0.86749600
 H                  4.18967093   -3.08929831    0.87980247
 C                  6.08590534   -2.58678475    0.00412651
 H                  6.44301572   -2.08053150    0.87652540
 H                  6.44214018   -2.08424379   -0.87077310
 C                  6.59922073   -4.03871427    0.00695354
 H                  6.24210988   -4.54496678   -0.86544559
 H                  6.24298574   -4.54125553    0.88185291
 C                  8.13922054   -4.03873438    0.00618213
 H                  8.49633054   -3.53248471    0.87858326
 H                  8.49545576   -3.53618983   -0.86871525
 C                  8.65253593   -5.49066391    0.00900343
 H                  8.29542582   -5.99691271   -0.86339816
 H                  9.72253579   -5.49067789    0.00846837
 H                  8.29630019   -5.99320890    0.88390035

 1 2 1.0 3 1.0 4 1.0 5 1.0
 2
 3
 4
 5 6 1.0 7 1.0 8 1.0
 6
 7
 8 9 1.0 10 1.0 11 1.0
 9
 10
 11 12 1.0 13 1.0 14 1.0
 12
 13
 14 15 1.0 16 1.0 17 1.0
 15
 16
 17 18 1.0 19 1.0 20 1.0
 18
 19
 20 21 1.0 22 1.0 23 1.0
 21
 22
 23 24 1.0 25 1.0 26 1.0
 24
 25
 26 27 1.0 28 1.0 29 1.0
 27
 28
 29 30 1.0 31 1.0 32 1.0
 30
 31
 32 33 1.0 34 1.0 35 1.0
 33
 34
 35 36 1.0 37 1.0 38 1.0
 36
 37
 38

