%nprocshared=24
%mem=40GB
%chk=resin6.chk
#p opt b3lyp/6-31g(d) scrf=(solvent=water,pcm) empiricaldispersion=gd3

Title Card Required

0 1
 C                -14.84836187   -9.33397157    9.18057624
 C                -16.33343387   -9.33397157    9.18057624
 C                -17.02269387   -8.07568957    9.18057624
 C                -16.31254987   -6.92057557    9.18057624
 C                -14.86924587   -6.92057557    9.18057624
 C                -14.15910187   -8.07568957    9.18057624
 C                -15.59089787  -11.55502057    9.18057624
 C                -16.77631087  -10.62550957    9.18057624
 H                -13.05952387   -8.08326757    9.18057624
 H                -17.80139087  -10.98809857    9.18057624
 S                -14.40548487  -10.62550957    9.18057624
 C                -15.59089787  -13.09502057    9.18057624
 H                -15.08480198  -13.45168692   10.05324804
 H                -16.59970158  -13.45168743    9.18253238
 C                -14.86737454  -13.60835345    7.92176595
 H                -13.81275435  -13.46642228    8.03371150
 H                -15.21148736  -13.06554157    7.06628852
 C                -15.16645093  -15.10720409    7.73308616
 H                -14.89396771  -15.63971360    8.62026512
 C                -16.66965354  -15.30027962    7.45976625
 H                -16.82807393  -16.24946270    6.99194741
 H                -17.20775700  -15.26387544    8.38389795
 H                -17.01756222  -14.52165053    6.81354936
 C                -14.35449678  -15.64656299    6.54085194
 H                -13.31099531  -15.49407141    6.72182434
 H                -14.54682467  -16.69244006    6.42231442
 H                -14.64152065  -15.12792669    5.65004687
 C                -14.16084106   -5.55318293    9.18057624
 H                -13.52912157   -5.52435650    8.31744269
 C                -16.19096033   -4.25599005    9.18057624
 C                -17.02095468   -5.55318293    9.18057624
 C                -18.55935385   -5.48298318    9.18057624
 C                -18.56265730   -8.08630259    9.18057624
 H                -18.85024917   -4.92148484    8.31744269
 H                -18.86684173   -8.64335938   10.04200504
 C                -19.38934820   -6.78017606    9.18057624
 H                -18.86684173   -8.64335938    8.31914745
 H                -20.01524894   -6.77863789   10.04841603
 H                -20.01524894   -6.77863789    8.31273645
 H                -18.85024917   -4.92148484   10.04370979
 H                -17.02095468   -5.55318293   10.25057624
 H                -13.52912157   -5.52435650   10.04370979
 C                -14.99083542   -4.25599005    9.18057624
 H                -14.82133476   -3.66193379   10.05422759
 C                -14.74687487   -3.40099490    7.92317156
 H                -13.70494960   -3.17025019    7.84539874
 H                -15.05731759   -3.94542220    7.05592059
 C                -15.55570241   -2.09453178    8.02589505
 H                -15.04134545   -1.31465587    7.50423377
 H                -16.52218251   -2.23816503    7.58979219
 H                -15.66555660   -1.82303746    9.05503201
 H                -16.49606958   -3.69855005    8.31972261
 H                -16.49606958   -3.69855005   10.04142988

 1 2 1.0 6 2.0 11 1.0
 2 3 2.0 8 1.0
 3 4 1.0 33 1.0
 4 5 2.0 31 1.0
 5 6 1.0 28 1.0
 6 9 1.0
 7 8 2.0 11 1.0 12 1.0
 8 10 1.0
 9
 10
 11
 12 13 1.0 14 1.0 15 1.0
 13
 14
 15 16 1.0 17 1.0 18 1.0
 16
 17
 18 19 1.0 20 1.0 24 1.0
 19
 20 21 1.0 22 1.0 23 1.0
 21
 22
 23
 24 25 1.0 26 1.0 27 1.0
 25
 26
 27
 28 29 1.0 42 1.0 43 1.0
 29
 30 31 1.0 43 1.0 52 1.0 53 1.0
 31 32 1.0 41 1.0
 32 34 1.0 36 1.0 40 1.0
 33 35 1.0 36 1.0 37 1.0
 34
 35
 36 38 1.0 39 1.0
 37
 38
 39
 40
 41
 42
 43 44 1.0 45 1.0
 44
 45 46 1.0 47 1.0 48 1.0
 46
 47
 48 49 1.0 50 1.0 51 1.0
 49
 50
 51
 52
 53

