%nprocshared=24
%mem=40GB
%chk=resin4.chk
#p opt b3lyp/6-31g(d) scrf=(solvent=water,pcm) empiricaldispersion=gd3

Title Card Required

0 1
 C                -20.67684441   -8.47308911    2.54656514
 C                -19.30404341   -8.47308911    2.54656514
 C                -18.58210541   -7.24796811    2.54656514
 C                -19.29997541   -6.02410211    2.54693514
 C                -20.72139141   -6.05347511    2.54708914
 C                -21.39289641   -7.25145011    2.54679914
 H                -16.61303241   -8.17293311    2.54632214
 H                -18.73925441   -9.41741111    2.54633714
 C                -17.16037841   -7.21842511    2.54630214
 C                -18.57722541   -4.79937611    2.54705014
 H                -21.26863241   -5.09901911    2.54717114
 H                -22.49253341   -7.27781711    2.54690114
 C                -17.20436441   -4.79930811    2.54677714
 C                -16.48835241   -6.02120011    2.54631814
 C                -14.94879824   -5.98414731    2.54606333
 C                -16.41936898   -3.47439977    2.54652793
 C                -14.21111059   -4.63235941    2.53676707
 C                -14.87946696   -3.49177157    2.54653120
 H                -14.61952434   -6.51808701    3.41288920
 H                -14.61952434   -6.52995829    1.68666292
 H                -13.56588581   -4.62318295    3.39028964
 H                -13.58940761   -4.62220494    1.66597301
 H                -14.56124678   -2.93640985    1.68908774
 H                -14.56141810   -2.95127212    3.41348291
 C                -19.36721303   -3.47743836    2.54741403
 C                -18.61737512   -2.13232016    2.54778429
 C                -17.17427557   -2.13211963    2.54627546
 H                -19.99951823   -3.48671945    1.68427789
 H                -19.99951823   -3.48719463    3.41054492
 H                -16.85454895   -1.58626664    3.40924673
 H                -16.85635491   -1.58760725    1.68179138
 H                -16.41936898   -3.47419851    3.61652791
 C                -19.39748205   -0.80452900    2.54973950
 H                -20.02022579   -0.75545652    1.68101508
 H                -20.00584175   -0.74957843    3.42824899
 H                -18.70840071    0.01400377    2.54131294
 H                -18.61782499   -2.13056832    3.61778276
 C                -21.46187105   -9.79797898    2.54645314
 H                -21.70080068  -10.07106793    3.55304892
 H                -22.36511491   -9.67731451    1.98565852
 C                -20.60302143  -10.90349102    1.90472076
 H                -19.79477627  -11.15283775    2.56005730
 H                -20.21137716  -10.55468238    0.97206472
 C                -21.47111582  -12.15215337    1.66212134
 H                -21.91603554  -12.46194699    2.58460405
 H                -22.24025691  -11.92001184    0.95541611
 C                -20.59187002  -13.28905420    1.10896375
 H                -20.14974550  -12.98055735    0.18470426
 C                -21.45900725  -14.53929898    0.87113810
 H                -20.84754475  -15.33013959    0.48958243
 H                -21.90348865  -14.84605591    1.79484610
 H                -22.22847956  -14.31037761    0.16374333
 C                -19.48181611  -13.61971456    2.12387459
 H                -18.63549290  -12.99004637    1.94455647
 H                -19.84537505  -13.45445296    3.11655455
 H                -19.19330947  -14.64438883    2.01567778

 1 2 1.5 6 1.5 38 1.0
 2 3 1.5 8 1.0
 3 4 1.5 9 1.5
 4 5 1.5 10 1.5
 5 6 1.5 11 1.0
 6 12 1.0
 7 9 1.0
 8
 9 14 1.5
 10 13 1.5 25 1.0
 11
 12
 13 14 1.5 16 1.0
 14 15 1.0
 15 17 1.0 19 1.0 20 1.0
 16 18 1.0 27 1.0 32 1.0
 17 18 1.0 21 1.0 22 1.0
 18 23 1.0 24 1.0
 19
 20
 21
 22
 23
 24
 25 26 1.0 28 1.0 29 1.0
 26 27 1.0 33 1.0 37 1.0
 27 30 1.0 31 1.0
 28
 29
 30
 31
 32
 33 34 1.0 35 1.0 36 1.0
 34
 35
 36
 37
 38 39 1.0 40 1.0 41 1.0
 39
 40
 41 42 1.0 43 1.0 44 1.0
 42
 43
 44 45 1.0 46 1.0 47 1.0
 45
 46
 47 48 1.0 49 1.0 53 1.0
 48
 49 50 1.0 51 1.0 52 1.0
 50
 51
 52
 53 54 1.0 55 1.0 56 1.0
 54
 55
 56

